outputs/case_46.model.txt
dispose_subsidiary_shares = False
other_necessary_measures = False
remove_manager_or_staff = False
remove_or_suspend_director_supervisor = True
revoke_permit = False
revoke_statutory_resolution = False
suspend_subsidiary_business = False
correction_given = True
improvement_deadline_set = True
violation_flag = True
liquidation_ordered = False
reduce_directors_to_meet_requirements = False
forbid_use_fhc_name_and_change_registration = False
moe_notified_to_revoke_registration = True
dispose_shares_within_deadline = False
penalty_measures = True
correction_ordered = True
notify_moe_on_remove_director_supervisor = True
violation_occurred = True
penalty = False
dispose_shares_and_deregister_after_revoke_permit = True